60 1770
1 2 37
1 3 165
1 4 173
1 5 45
1 6 140
1 7 151
1 8 130
1 9 53
1 10 145
1 11 174
1 12 131
1 13 169
1 14 7
1 15 119
1 16 65
1 17 177
1 18 173
1 19 163
1 20 18
1 21 18
1 22 116
1 23 102
1 24 144
1 25 134
1 26 62
1 27 27
1 28 46
1 29 173
1 30 64
1 31 62
1 32 11
1 33 15
1 34 151
1 35 13
1 36 178
1 37 161
1 38 55
1 39 156
1 40 113
1 41 91
1 42 78
1 43 104
1 44 75
1 45 95
1 46 172
1 47 165
1 48 39
1 49 137
1 50 161
1 51 120
1 52 175
1 53 167
1 54 164
1 55 22
1 56 168
1 57 153
1 58 119
1 59 69
1 60 105
2 3 154
2 4 91
2 5 19
2 6 158
2 7 49
2 8 52
2 9 44
2 10 34
2 11 43
2 12 28
2 13 179
2 14 169
2 15 16
2 16 39
2 17 33
2 18 9
2 19 11
2 20 4
2 21 98
2 22 156
2 23 127
2 24 10
2 25 127
2 26 79
2 27 107
2 28 145
2 29 58
2 30 9
2 31 45
2 32 71
2 33 102
2 34 176
2 35 55
2 36 108
2 37 80
2 38 147
2 39 173
2 40 159
2 41 108
2 42 151
2 43 11
2 44 29
2 45 44
2 46 157
2 47 19
2 48 179
2 49 55
2 50 124
2 51 52
2 52 151
2 53 115
2 54 134
2 55 39
2 56 98
2 57 74
2 58 30
2 59 172
2 60 83
3 4 175
3 5 141
3 6 135
3 7 143
3 8 147
3 9 150
3 10 163
3 11 70
3 12 132
3 13 22
3 14 169
3 15 105
3 16 179
3 17 160
3 18 14
3 19 82
3 20 81
3 21 117
3 22 151
3 23 73
3 24 94
3 25 68
3 26 86
3 27 56
3 28 91
3 29 38
3 30 125
3 31 144
3 32 32
3 33 31
3 34 66
3 35 121
3 36 150
3 37 124
3 38 113
3 39 42
3 40 127
3 41 72
3 42 69
3 43 102
3 44 137
3 45 2
3 46 7
3 47 102
3 48 91
3 49 49
3 50 131
3 51 140
3 52 115
3 53 150
3 54 0
3 55 104
3 56 145
3 57 19
3 58 5
3 59 134
3 60 5
4 5 4
4 6 105
4 7 107
4 8 65
4 9 89
4 10 68
4 11 75
4 12 99
4 13 65
4 14 43
4 15 107
4 16 165
4 17 14
4 18 15
4 19 55
4 20 89
4 21 47
4 22 138
4 23 19
4 24 91
4 25 66
4 26 173
4 27 25
4 28 131
4 29 36
4 30 49
4 31 160
4 32 143
4 33 5
4 34 47
4 35 33
4 36 175
4 37 175
4 38 50
4 39 62
4 40 50
4 41 52
4 42 149
4 43 36
4 44 88
4 45 139
4 46 138
4 47 159
4 48 45
4 49 29
4 50 37
4 51 156
4 52 6
4 53 123
4 54 151
4 55 169
4 56 56
4 57 24
4 58 48
4 59 9
4 60 23
5 6 44
5 7 109
5 8 30
5 9 174
5 10 37
5 11 172
5 12 7
5 13 62
5 14 52
5 15 108
5 16 133
5 17 159
5 18 30
5 19 176
5 20 116
5 21 115
5 22 107
5 23 162
5 24 54
5 25 143
5 26 72
5 27 54
5 28 140
5 29 109
5 30 19
5 31 24
5 32 26
5 33 102
5 34 85
5 35 51
5 36 6
5 37 32
5 38 6
5 39 94
5 40 98
5 41 7
5 42 158
5 43 41
5 44 136
5 45 172
5 46 39
5 47 119
5 48 18
5 49 152
5 50 36
5 51 28
5 52 52
5 53 56
5 54 55
5 55 173
5 56 84
5 57 40
5 58 58
5 59 57
5 60 81
6 7 29
6 8 30
6 9 95
6 10 144
6 11 122
6 12 71
6 13 170
6 14 130
6 15 83
6 16 1
6 17 175
6 18 64
6 19 40
6 20 20
6 21 168
6 22 2
6 23 77
6 24 94
6 25 11
6 26 172
6 27 101
6 28 50
6 29 66
6 30 9
6 31 113
6 32 20
6 33 106
6 34 28
6 35 114
6 36 65
6 37 165
6 38 80
6 39 72
6 40 81
6 41 19
6 42 119
6 43 170
6 44 120
6 45 64
6 46 16
6 47 65
6 48 63
6 49 8
6 50 15
6 51 120
6 52 83
6 53 81
6 54 148
6 55 96
6 56 152
6 57 151
6 58 25
6 59 111
6 60 134
7 8 97
7 9 146
7 10 93
7 11 108
7 12 17
7 13 160
7 14 6
7 15 91
7 16 59
7 17 140
7 18 14
7 19 51
7 20 2
7 21 59
7 22 149
7 23 1
7 24 175
7 25 18
7 26 179
7 27 113
7 28 79
7 29 68
7 30 63
7 31 136
7 32 12
7 33 123
7 34 143
7 35 148
7 36 64
7 37 30
7 38 170
7 39 32
7 40 106
7 41 16
7 42 109
7 43 78
7 44 177
7 45 34
7 46 141
7 47 46
7 48 82
7 49 138
7 50 14
7 51 46
7 52 56
7 53 12
7 54 101
7 55 105
7 56 86
7 57 51
7 58 115
7 59 10
7 60 179
8 9 14
8 10 111
8 11 70
8 12 49
8 13 127
8 14 104
8 15 175
8 16 72
8 17 112
8 18 35
8 19 179
8 20 139
8 21 11
8 22 139
8 23 53
8 24 147
8 25 27
8 26 113
8 27 146
8 28 119
8 29 166
8 30 44
8 31 118
8 32 123
8 33 63
8 34 41
8 35 43
8 36 3
8 37 99
8 38 100
8 39 115
8 40 64
8 41 39
8 42 138
8 43 68
8 44 50
8 45 173
8 46 168
8 47 123
8 48 70
8 49 51
8 50 25
8 51 170
8 52 30
8 53 120
8 54 10
8 55 162
8 56 145
8 57 15
8 58 127
8 59 70
8 60 6
9 10 75
9 11 107
9 12 20
9 13 129
9 14 94
9 15 65
9 16 64
9 17 118
9 18 44
9 19 171
9 20 6
9 21 130
9 22 145
9 23 68
9 24 109
9 25 80
9 26 14
9 27 139
9 28 161
9 29 103
9 30 33
9 31 145
9 32 43
9 33 62
9 34 1
9 35 55
9 36 42
9 37 41
9 38 75
9 39 63
9 40 107
9 41 167
9 42 156
9 43 96
9 44 121
9 45 8
9 46 163
9 47 99
9 48 166
9 49 38
9 50 148
9 51 68
9 52 14
9 53 77
9 54 16
9 55 33
9 56 44
9 57 136
9 58 16
9 59 4
9 60 92
10 11 11
10 12 102
10 13 36
10 14 83
10 15 48
10 16 13
10 17 68
10 18 19
10 19 26
10 20 64
10 21 117
10 22 126
10 23 154
10 24 107
10 25 34
10 26 160
10 27 110
10 28 50
10 29 153
10 30 4
10 31 58
10 32 102
10 33 145
10 34 154
10 35 42
10 36 121
10 37 16
10 38 64
10 39 26
10 40 28
10 41 114
10 42 122
10 43 60
10 44 15
10 45 142
10 46 108
10 47 23
10 48 146
10 49 159
10 50 141
10 51 33
10 52 77
10 53 116
10 54 120
10 55 58
10 56 168
10 57 161
10 58 117
10 59 54
10 60 169
11 12 162
11 13 33
11 14 149
11 15 86
11 16 144
11 17 39
11 18 168
11 19 119
11 20 40
11 21 164
11 22 64
11 23 69
11 24 73
11 25 23
11 26 99
11 27 40
11 28 169
11 29 48
11 30 62
11 31 90
11 32 83
11 33 108
11 34 155
11 35 147
11 36 100
11 37 31
11 38 179
11 39 61
11 40 43
11 41 49
11 42 31
11 43 54
11 44 111
11 45 128
11 46 35
11 47 162
11 48 109
11 49 87
11 50 15
11 51 83
11 52 83
11 53 13
11 54 147
11 55 161
11 56 37
11 57 46
11 58 49
11 59 148
11 60 64
12 13 126
12 14 43
12 15 159
12 16 15
12 17 29
12 18 100
12 19 78
12 20 28
12 21 108
12 22 142
12 23 151
12 24 95
12 25 102
12 26 172
12 27 64
12 28 26
12 29 83
12 30 57
12 31 98
12 32 22
12 33 172
12 34 87
12 35 142
12 36 176
12 37 14
12 38 0
12 39 130
12 40 135
12 41 177
12 42 50
12 43 90
12 44 156
12 45 77
12 46 179
12 47 44
12 48 34
12 49 24
12 50 178
12 51 3
12 52 16
12 53 62
12 54 29
12 55 66
12 56 13
12 57 66
12 58 126
12 59 56
12 60 45
13 14 59
13 15 166
13 16 18
13 17 154
13 18 176
13 19 65
13 20 109
13 21 156
13 22 36
13 23 119
13 24 99
13 25 111
13 26 66
13 27 129
13 28 6
13 29 106
13 30 164
13 31 44
13 32 146
13 33 97
13 34 54
13 35 117
13 36 59
13 37 60
13 38 3
13 39 11
13 40 63
13 41 17
13 42 130
13 43 169
13 44 17
13 45 115
13 46 81
13 47 150
13 48 27
13 49 19
13 50 118
13 51 152
13 52 39
13 53 163
13 54 138
13 55 98
13 56 111
13 57 178
13 58 88
13 59 27
13 60 121
14 15 29
14 16 154
14 17 67
14 18 179
14 19 98
14 20 85
14 21 102
14 22 22
14 23 96
14 24 83
14 25 106
14 26 110
14 27 166
14 28 51
14 29 131
14 30 54
14 31 29
14 32 144
14 33 142
14 34 176
14 35 154
14 36 143
14 37 137
14 38 54
14 39 84
14 40 127
14 41 114
14 42 103
14 43 153
14 44 93
14 45 51
14 46 19
14 47 59
14 48 29
14 49 102
14 50 138
14 51 152
14 52 124
14 53 41
14 54 21
14 55 106
14 56 159
14 57 120
14 58 123
14 59 101
14 60 57
15 16 111
15 17 115
15 18 118
15 19 136
15 20 168
15 21 8
15 22 31
15 23 165
15 24 18
15 25 129
15 26 155
15 27 37
15 28 96
15 29 62
15 30 116
15 31 120
15 32 40
15 33 59
15 34 65
15 35 104
15 36 24
15 37 90
15 38 123
15 39 48
15 40 53
15 41 40
15 42 60
15 43 145
15 44 62
15 45 124
15 46 104
15 47 63
15 48 49
15 49 30
15 50 60
15 51 151
15 52 47
15 53 155
15 54 144
15 55 109
15 56 150
15 57 108
15 58 11
15 59 103
15 60 143
16 17 7
16 18 58
16 19 174
16 20 37
16 21 25
16 22 30
16 23 76
16 24 178
16 25 24
16 26 32
16 27 151
16 28 77
16 29 61
16 30 120
16 31 79
16 32 161
16 33 5
16 34 157
16 35 111
16 36 151
16 37 144
16 38 83
16 39 23
16 40 121
16 41 124
16 42 76
16 43 96
16 44 5
16 45 175
16 46 17
16 47 15
16 48 166
16 49 157
16 50 75
16 51 62
16 52 104
16 53 48
16 54 28
16 55 158
16 56 40
16 57 174
16 58 173
16 59 164
16 60 106
17 18 14
17 19 140
17 20 125
17 21 1
17 22 110
17 23 75
17 24 165
17 25 136
17 26 14
17 27 92
17 28 144
17 29 170
17 30 61
17 31 163
17 32 117
17 33 20
17 34 145
17 35 102
17 36 37
17 37 77
17 38 135
17 39 173
17 40 75
17 41 146
17 42 41
17 43 6
17 44 133
17 45 153
17 46 115
17 47 64
17 48 77
17 49 30
17 50 30
17 51 22
17 52 114
17 53 9
17 54 140
17 55 41
17 56 152
17 57 31
17 58 7
17 59 42
17 60 171
18 19 61
18 20 113
18 21 66
18 22 143
18 23 68
18 24 166
18 25 63
18 26 13
18 27 50
18 28 24
18 29 17
18 30 163
18 31 138
18 32 11
18 33 71
18 34 85
18 35 13
18 36 111
18 37 28
18 38 17
18 39 115
18 40 167
18 41 116
18 42 151
18 43 94
18 44 33
18 45 55
18 46 163
18 47 166
18 48 95
18 49 76
18 50 164
18 51 39
18 52 148
18 53 12
18 54 177
18 55 19
18 56 38
18 57 99
18 58 122
18 59 177
18 60 126
19 20 148
19 21 133
19 22 27
19 23 154
19 24 8
19 25 134
19 26 117
19 27 124
19 28 160
19 29 100
19 30 34
19 31 106
19 32 54
19 33 67
19 34 103
19 35 135
19 36 45
19 37 94
19 38 153
19 39 91
19 40 105
19 41 5
19 42 156
19 43 137
19 44 75
19 45 94
19 46 25
19 47 139
19 48 123
19 49 60
19 50 121
19 51 174
19 52 166
19 53 163
19 54 111
19 55 68
19 56 142
19 57 1
19 58 60
19 59 129
19 60 116
20 21 80
20 22 53
20 23 130
20 24 103
20 25 86
20 26 104
20 27 39
20 28 74
20 29 63
20 30 104
20 31 158
20 32 25
20 33 55
20 34 143
20 35 27
20 36 100
20 37 21
20 38 64
20 39 146
20 40 152
20 41 176
20 42 170
20 43 59
20 44 153
20 45 174
20 46 4
20 47 165
20 48 69
20 49 86
20 50 61
20 51 35
20 52 46
20 53 73
20 54 120
20 55 68
20 56 109
20 57 124
20 58 117
20 59 179
20 60 84
21 22 18
21 23 133
21 24 151
21 25 33
21 26 160
21 27 8
21 28 77
21 29 149
21 30 44
21 31 77
21 32 139
21 33 129
21 34 2
21 35 145
21 36 38
21 37 64
21 38 148
21 39 150
21 40 41
21 41 40
21 42 18
21 43 23
21 44 125
21 45 101
21 46 95
21 47 176
21 48 77
21 49 76
21 50 159
21 51 98
21 52 127
21 53 4
21 54 42
21 55 42
21 56 132
21 57 113
21 58 31
21 59 55
21 60 38
22 23 169
22 24 20
22 25 6
22 26 118
22 27 80
22 28 76
22 29 119
22 30 164
22 31 92
22 32 22
22 33 142
22 34 41
22 35 127
22 36 146
22 37 47
22 38 120
22 39 152
22 40 145
22 41 79
22 42 143
22 43 124
22 44 143
22 45 95
22 46 139
22 47 105
22 48 42
22 49 36
22 50 104
22 51 50
22 52 119
22 53 32
22 54 162
22 55 173
22 56 24
22 57 107
22 58 67
22 59 176
22 60 120
23 24 32
23 25 17
23 26 70
23 27 170
23 28 37
23 29 168
23 30 157
23 31 88
23 32 141
23 33 157
23 34 97
23 35 42
23 36 7
23 37 66
23 38 9
23 39 44
23 40 25
23 41 148
23 42 79
23 43 48
23 44 37
23 45 105
23 46 113
23 47 112
23 48 145
23 49 36
23 50 7
23 51 107
23 52 113
23 53 54
23 54 96
23 55 2
23 56 131
23 57 105
23 58 1
23 59 63
23 60 175
24 25 99
24 26 94
24 27 48
24 28 126
24 29 137
24 30 27
24 31 14
24 32 163
24 33 72
24 34 8
24 35 30
24 36 64
24 37 138
24 38 144
24 39 152
24 40 15
24 41 19
24 42 37
24 43 44
24 44 92
24 45 88
24 46 27
24 47 67
24 48 137
24 49 9
24 50 142
24 51 39
24 52 76
24 53 105
24 54 54
24 55 73
24 56 114
24 57 136
24 58 17
24 59 163
24 60 83
25 26 12
25 27 166
25 28 131
25 29 44
25 30 90
25 31 38
25 32 138
25 33 77
25 34 30
25 35 87
25 36 13
25 37 145
25 38 40
25 39 89
25 40 123
25 41 48
25 42 80
25 43 80
25 44 106
25 45 75
25 46 19
25 47 28
25 48 98
25 49 92
25 50 80
25 51 40
25 52 30
25 53 172
25 54 114
25 55 83
25 56 55
25 57 120
25 58 103
25 59 107
25 60 169
26 27 28
26 28 76
26 29 161
26 30 112
26 31 5
26 32 98
26 33 60
26 34 72
26 35 158
26 36 102
26 37 41
26 38 25
26 39 102
26 40 50
26 41 156
26 42 46
26 43 157
26 44 155
26 45 116
26 46 135
26 47 109
26 48 173
26 49 89
26 50 101
26 51 165
26 52 75
26 53 143
26 54 107
26 55 23
26 56 60
26 57 90
26 58 163
26 59 119
26 60 65
27 28 163
27 29 40
27 30 127
27 31 115
27 32 147
27 33 140
27 34 51
27 35 87
27 36 34
27 37 53
27 38 172
27 39 140
27 40 110
27 41 55
27 42 141
27 43 25
27 44 26
27 45 178
27 46 26
27 47 101
27 48 16
27 49 147
27 50 111
27 51 165
27 52 98
27 53 109
27 54 157
27 55 161
27 56 80
27 57 111
27 58 143
27 59 7
27 60 120
28 29 160
28 30 141
28 31 114
28 32 156
28 33 51
28 34 154
28 35 77
28 36 142
28 37 44
28 38 150
28 39 0
28 40 102
28 41 175
28 42 28
28 43 132
28 44 64
28 45 19
28 46 154
28 47 126
28 48 95
28 49 169
28 50 28
28 51 85
28 52 74
28 53 151
28 54 56
28 55 139
28 56 177
28 57 50
28 58 163
28 59 80
28 60 50
29 30 81
29 31 44
29 32 148
29 33 32
29 34 89
29 35 165
29 36 20
29 37 32
29 38 171
29 39 70
29 40 79
29 41 29
29 42 45
29 43 130
29 44 133
29 45 145
29 46 115
29 47 135
29 48 81
29 49 132
29 50 80
29 51 160
29 52 154
29 53 155
29 54 72
29 55 80
29 56 11
29 57 46
29 58 140
29 59 40
29 60 134
30 31 159
30 32 92
30 33 119
30 34 129
30 35 144
30 36 92
30 37 99
30 38 1
30 39 30
30 40 26
30 41 83
30 42 76
30 43 56
30 44 154
30 45 19
30 46 178
30 47 72
30 48 157
30 49 116
30 50 157
30 51 167
30 52 17
30 53 178
30 54 84
30 55 171
30 56 26
30 57 113
30 58 9
30 59 94
30 60 106
31 32 67
31 33 155
31 34 96
31 35 163
31 36 128
31 37 92
31 38 5
31 39 40
31 40 5
31 41 22
31 42 22
31 43 142
31 44 117
31 45 52
31 46 109
31 47 145
31 48 148
31 49 57
31 50 45
31 51 74
31 52 115
31 53 83
31 54 84
31 55 36
31 56 51
31 57 163
31 58 146
31 59 141
31 60 10
32 33 108
32 34 48
32 35 17
32 36 38
32 37 93
32 38 111
32 39 46
32 40 17
32 41 168
32 42 2
32 43 90
32 44 60
32 45 132
32 46 8
32 47 138
32 48 12
32 49 47
32 50 90
32 51 33
32 52 60
32 53 50
32 54 46
32 55 116
32 56 179
32 57 61
32 58 137
32 59 106
32 60 53
33 34 131
33 35 87
33 36 25
33 37 67
33 38 49
33 39 2
33 40 150
33 41 80
33 42 63
33 43 175
33 44 43
33 45 23
33 46 104
33 47 45
33 48 2
33 49 20
33 50 127
33 51 80
33 52 106
33 53 57
33 54 98
33 55 44
33 56 56
33 57 177
33 58 113
33 59 86
33 60 108
34 35 6
34 36 19
34 37 154
34 38 145
34 39 81
34 40 9
34 41 149
34 42 161
34 43 20
34 44 107
34 45 43
34 46 0
34 47 86
34 48 46
34 49 132
34 50 99
34 51 115
34 52 154
34 53 40
34 54 178
34 55 62
34 56 49
34 57 134
34 58 158
34 59 4
34 60 15
35 36 13
35 37 131
35 38 144
35 39 50
35 40 133
35 41 22
35 42 75
35 43 70
35 44 52
35 45 87
35 46 154
35 47 121
35 48 112
35 49 90
35 50 135
35 51 1
35 52 76
35 53 12
35 54 42
35 55 71
35 56 142
35 57 77
35 58 99
35 59 112
35 60 41
36 37 134
36 38 173
36 39 172
36 40 179
36 41 135
36 42 46
36 43 98
36 44 67
36 45 165
36 46 171
36 47 95
36 48 70
36 49 28
36 50 75
36 51 16
36 52 162
36 53 34
36 54 160
36 55 45
36 56 127
36 57 128
36 58 130
36 59 69
36 60 116
37 38 18
37 39 11
37 40 154
37 41 34
37 42 50
37 43 109
37 44 74
37 45 90
37 46 121
37 47 27
37 48 73
37 49 72
37 50 168
37 51 140
37 52 62
37 53 132
37 54 149
37 55 138
37 56 38
37 57 158
37 58 48
37 59 169
37 60 39
38 39 81
38 40 120
38 41 38
38 42 175
38 43 69
38 44 84
38 45 111
38 46 146
38 47 59
38 48 10
38 49 36
38 50 143
38 51 151
38 52 164
38 53 5
38 54 13
38 55 25
38 56 7
38 57 123
38 58 72
38 59 51
38 60 37
39 40 174
39 41 175
39 42 57
39 43 132
39 44 106
39 45 37
39 46 178
39 47 129
39 48 115
39 49 147
39 50 77
39 51 100
39 52 90
39 53 55
39 54 18
39 55 83
39 56 120
39 57 178
39 58 90
39 59 174
39 60 151
40 41 27
40 42 162
40 43 18
40 44 154
40 45 129
40 46 57
40 47 17
40 48 28
40 49 11
40 50 23
40 51 172
40 52 109
40 53 83
40 54 41
40 55 14
40 56 83
40 57 170
40 58 62
40 59 126
40 60 45
41 42 111
41 43 77
41 44 104
41 45 46
41 46 53
41 47 65
41 48 128
41 49 145
41 50 123
41 51 159
41 52 137
41 53 85
41 54 13
41 55 105
41 56 125
41 57 160
41 58 110
41 59 34
41 60 10
42 43 19
42 44 111
42 45 56
42 46 131
42 47 7
42 48 74
42 49 72
42 50 109
42 51 40
42 52 174
42 53 134
42 54 54
42 55 107
42 56 110
42 57 43
42 58 105
42 59 81
42 60 73
43 44 137
43 45 45
43 46 113
43 47 3
43 48 11
43 49 50
43 50 90
43 51 81
43 52 166
43 53 13
43 54 81
43 55 52
43 56 79
43 57 22
43 58 76
43 59 61
43 60 52
44 45 140
44 46 97
44 47 73
44 48 35
44 49 132
44 50 3
44 51 172
44 52 124
44 53 125
44 54 119
44 55 177
44 56 101
44 57 78
44 58 64
44 59 95
44 60 15
45 46 82
45 47 94
45 48 26
45 49 89
45 50 104
45 51 75
45 52 78
45 53 171
45 54 145
45 55 106
45 56 83
45 57 35
45 58 156
45 59 160
45 60 87
46 47 155
46 48 10
46 49 150
46 50 88
46 51 59
46 52 154
46 53 100
46 54 8
46 55 69
46 56 85
46 57 21
46 58 157
46 59 26
46 60 103
47 48 122
47 49 38
47 50 138
47 51 119
47 52 22
47 53 120
47 54 63
47 55 80
47 56 52
47 57 116
47 58 34
47 59 115
47 60 122
48 49 147
48 50 114
48 51 160
48 52 112
48 53 68
48 54 66
48 55 128
48 56 67
48 57 147
48 58 116
48 59 93
48 60 158
49 50 87
49 51 6
49 52 87
49 53 68
49 54 25
49 55 90
49 56 142
49 57 138
49 58 27
49 59 51
49 60 13
50 51 20
50 52 60
50 53 105
50 54 121
50 55 96
50 56 170
50 57 146
50 58 77
50 59 70
50 60 164
51 52 107
51 53 81
51 54 160
51 55 9
51 56 29
51 57 29
51 58 16
51 59 54
51 60 103
52 53 145
52 54 140
52 55 174
52 56 90
52 57 154
52 58 53
52 59 51
52 60 5
53 54 30
53 55 177
53 56 23
53 57 116
53 58 105
53 59 68
53 60 36
54 55 57
54 56 73
54 57 128
54 58 35
54 59 70
54 60 108
55 56 64
55 57 101
55 58 176
55 59 109
55 60 0
56 57 51
56 58 161
56 59 67
56 60 101
57 58 159
57 59 119
57 60 28
58 59 37
58 60 71
59 60 34
